1193449
32,95,43,85,61,6,30,103,56,74,92,4,67,79,44,20,63,3,83,25,16,107,94,46,81,2,51,84,59,29,52,34,101,98,35,5,1,82,45,90,109,24,23,15,53,17,80,48,21,13,55,33,78,108,106,60,42,73,19,62,87,96,93,105,99,76,50,18,7,88,65,12,36,28,40,68,8,39,14,70,69,27,86,75,57,72,26,37,38,41,31,49,11,89,91,97,47,71,100,102,54,58,104,22,64,10,66,77,9